WARNING: for repeatability, setting FPU to use double precision
============================[ Problem Statistics ]=============================
|                                                                             |
|  Number of variables:          3728                                         |
|  Number of clauses:           11080                                         |
|  Parse time:                   0.00 s                                       |
|                                                                             |
c ============================[ Search Statistics ]==============================
c | Conflicts |          ORIGINAL         |          LEARNT          | Progress |
c |           |    Vars  Clauses Literals |    Limit  Clauses Lit/Cl |          |
c ===============================================================================
c Switched to VSIDS.
c Switched to LRB.
c Switched to VSIDS.
c Switched to LRB.
c Switched to VSIDS.
c Switched to LRB.
c Switched to VSIDS.
c Switched to LRB.
c Switched to VSIDS.
c Switched to LRB.
c Switched to VSIDS.
c Switched to LRB.
c Switched to VSIDS.
c Switched to LRB.
c Switched to VSIDS.
c Switched to LRB.
c Switched to VSIDS.
c Switched to LRB.
c Switched to VSIDS.
c Switched to LRB.
c Switched to VSIDS.
c Switched to LRB.
c Switched to VSIDS.
c Switched to LRB.
c Switched to VSIDS.
c Switched to LRB.
c Switched to VSIDS.
c Switched to LRB.
c ===============================================================================
restarts                  : 12880
conflicts                 : 5443759        (1525 /sec)
decisions                 : 6340361        (0.00 % random) (1776 /sec)
propagations              : 4601389446     (1288678 /sec)
conflict literals         : 208848821      (60.07 % deleted)

conflicts w/ DIP found    : 3307272        (60.75 % of conflicts)
conflicts w/ dangerous DIP: 0              (0.00 % of conflicts)
conflicts w/ DIP-learning : 35376          (0.65 % of conflicts)
decisions on ext vars     : 12993          (0.20 % of decisions)
total ext vars            : 7337        
tried delete ext vars     : 5357        
deleted ext vars          : 5173        
max ext vars              : 2377        

Memory used               : 222.00 MB
CPU time                  : 3570.63 s
DIP computation time      : 77.0652 s (2.16 % of total time)
ER_sel time               : 5.61938 s
ER_add time               : 0.031809 s
ER_delC time              : 0 s
ER_delV time              : 0.803779 s
ER_sub time               : 7.69039 s
ER_stat time              : 0 s

INDETERMINATE
